5 5
1 18 0 64 2 49 3 42 4 12
2 89 0 94 1 79 3 36 4 8
4 28 3 86 0 60 2 49 1 38
3 80 0 58 4 5 1 46 2 98
3 75 1 2 4 89 2 25 0 1
-1
0 2 3 5
0 1 3 4 5
0 1 2 4 5
0 2 5
0 1 3 4 5
-2
98 181 185
92 313 412 402
39 138 351 400
193 318
88 203 209 216

381 7
1 16 6 12 24
0 18 21 7 14
5 2 19 13 23
15 11 20 3 8
10 17 22 9 4
